
Gurobi 11.0.3 (linux64) logging started Mon Aug 25 15:10:10 2025

Set parameter LogFile to value "/home/yihong/Coding/OR_SUC/SUC_epstheta_results_bigM100000_thread4/case24_ieee_rts_theta0.1_epsilon0.1_gurobi_seed120000_num_gen100_N_WDR50_load_scaling_factor1_proposed_theta_T14quadra_cost_bc1.01.txt"
Set parameter TimeLimit to value 3600
Gurobi Optimizer version 11.0.3 build v11.0.3rc0 (linux64 - "Ubuntu 20.04.6 LTS")

CPU model: AMD EPYC 7532 32-Core Processor, instruction set [SSE2|AVX|AVX2]
Thread count: 64 physical cores, 128 logical processors, using up to 4 threads

Academic license 2399124 - for non-commercial use only - registered to yi___@ed.ac.uk
Optimize a model with 33318 rows, 17411 columns and 766758 nonzeros
Model fingerprint: 0x44afdcc6
Model has 1400 quadratic constraints
Variable types: 16011 continuous, 1400 integer (1400 binary)
Coefficient statistics:
  Matrix range     [3e-04, 2e+03]
  QMatrix range    [2e-03, 8e-03]
  QLMatrix range   [2e-01, 6e+01]
  Objective range  [1e+00, 1e+00]
  Bounds range     [1e+00, 1e+00]
  RHS range        [1e+00, 9e+03]
Presolve removed 27197 rows and 7409 columns
Presolve time: 0.38s
Presolved: 6121 rows, 10002 columns, 34168 nonzeros
Presolved model has 1400 quadratic constraint(s)
Variable types: 8602 continuous, 1400 integer (1400 binary)

Root relaxation: objective 1.640496e+04, 4717 iterations, 0.16 seconds (0.14 work units)

    Nodes    |    Current Node    |     Objective Bounds      |     Work
 Expl Unexpl |  Obj  Depth IntInf | Incumbent    BestBd   Gap | It/Node Time

     0     0 16404.9629    0   14          - 16404.9629      -     -    0s
     0     0 229072.993    0  371          - 229072.993      -     -    1s
     0     0 229074.560    0  371          - 229074.560      -     -    1s
     0     0 409301.844    0  279          - 409301.844      -     -    1s
     0     0 409308.160    0  228          - 409308.160      -     -    1s
     0     0 409399.629    0  186          - 409399.629      -     -    1s
     0     0 409407.007    0  186          - 409407.007      -     -    1s
     0     0 409407.411    0  186          - 409407.411      -     -    1s
     0     2 409407.411    0  186          - 409407.411      -     -    1s
H  252   260                    409435.03282 409423.405  0.00%  14.8    2s
*  252   260              98    409435.03282 409423.405  0.00%  14.8    2s

Cutting planes:
  Gomory: 50
  Implied bound: 323
  MIR: 46
  Flow cover: 96

Explored 288 nodes (16898 simplex iterations) in 3.09 seconds (3.08 work units)
Thread count was 4 (of 128 available processors)

Solution count 2: 409435 409435 

Optimal solution found (tolerance 1.00e-03)
Warning: max constraint violation (1.2461e-07) exceeds tolerance
Best objective 4.094350328225e+05, best bound 4.094234054369e+05, gap 0.0028%

Gurobi 11.0.3 (linux64) logging started Mon Aug 25 15:10:15 2025

Set parameter LogFile to value "/home/yihong/Coding/OR_SUC/SUC_epstheta_results_bigM100000_thread4/case24_ieee_rts_theta0.1_epsilon0.1_gurobi_seed120000_num_gen100_N_WDR50_load_scaling_factor1_proposed_theta_T14quadra_cost_bc1.01.txt"
Set parameter TimeLimit to value 3600
Gurobi Optimizer version 11.0.3 build v11.0.3rc0 (linux64 - "Ubuntu 20.04.6 LTS")

CPU model: AMD EPYC 7532 32-Core Processor, instruction set [SSE2|AVX|AVX2]
Thread count: 64 physical cores, 128 logical processors, using up to 4 threads

Academic license 2399124 - for non-commercial use only - registered to yi___@ed.ac.uk
Optimize a model with 33319 rows, 17412 columns and 771099 nonzeros
Model fingerprint: 0x6ebfa26c
Model has 1400 quadratic constraints
Variable types: 16012 continuous, 1400 integer (1400 binary)
Coefficient statistics:
  Matrix range     [3e-04, 2e+03]
  QMatrix range    [2e-03, 8e-03]
  QLMatrix range   [2e-01, 6e+01]
  Objective range  [1e+00, 1e+00]
  Bounds range     [1e-01, 1e+00]
  RHS range        [1e+00, 4e+05]
Presolve removed 24606 rows and 6114 columns
Presolve time: 0.32s
Presolved: 8713 rows, 11298 columns, 46063 nonzeros
Presolved model has 1400 quadratic constraint(s)
Variable types: 9894 continuous, 1404 integer (1404 binary)

Root relaxation: objective 1.026109e+01, 9100 iterations, 0.25 seconds (0.24 work units)

    Nodes    |    Current Node    |     Objective Bounds      |     Work
 Expl Unexpl |  Obj  Depth IntInf | Incumbent    BestBd   Gap | It/Node Time

     0     0   10.26109    0    2          -   10.26109      -     -    0s
     0     0    1.70707    0   35          -    1.70707      -     -    1s
     0     0    1.70688    0   35          -    1.70688      -     -    1s
     0     0    0.42054    0   23          -    0.42054      -     -    1s
     0     0    0.41956    0   23          -    0.41956      -     -    2s
     0     0    0.41948    0   23          -    0.41948      -     -    2s
     0     0    0.41948    0   23          -    0.41948      -     -    2s
     0     0    0.41947    0   23          -    0.41947      -     -    2s
     0     2    0.41947    0   23          -    0.41947      -     -    3s
    31    36    0.41857    8   16          -    0.41857      -  45.7    5s
H   65    66                       0.4112443    0.41792  1.62%  37.3    6s
*   65    66              19       0.4112443    0.41785  1.61%  37.6    6s
H   74    61                       0.4121242    0.41782  1.38%  37.1    6s
H   79    61                       0.4141392    0.41776  0.87%  35.9    6s
H  107    64                       0.4151330    0.41776  0.63%  36.0    7s
H  241     0                       0.4163248    0.41768  0.33%  30.8    8s
*  241     0               9       0.4163248    0.41768  0.33%  30.8    8s
   271     5    0.41768   23  160    0.41632    0.41768  0.33%  27.4   10s
   370     5    0.41768   47  112    0.41632    0.41768  0.33%  20.1   15s
*  373     5              43       0.4163248    0.41768  0.33%  19.9   15s
   420     4     cutoff   68         0.41632    0.41768  0.33%  17.7   20s
*  450     0              84       0.4176828    0.41768  0.00%  16.5   23s

Cutting planes:
  Implied bound: 16
  MIR: 3
  Flow cover: 1

Explored 452 nodes (25295 simplex iterations) in 23.36 seconds (25.10 work units)
Thread count was 4 (of 128 available processors)

Solution count 7: 0.417683 0.417683 0.416325 ... 0.411244
No other solutions better than 0.417683

Optimal solution found (tolerance 1.00e-03)
Warning: max constraint violation (2.6335e-07) exceeds tolerance
Best objective 4.176828067733e-01, best bound 4.176828067733e-01, gap 0.0000%
